p cnf 32 84
a 28 13 0
e 1 2 3 4 5 6 7 8 9 10 11 12 14 15 16 17 18 19 20 21 22 23 24 25 26 27 29 30 31 32 0
-1 2 -3 0
1 -2 -3 0
-1 -2 3 0
1 2 3 0
4 1 0
4 -2 0
-1 2 -4 0
5 3 0
5 4 0
-3 -4 -5 0
-8 -7 0
-8 -2 0
7 2 8 0
-6 -8 -9 0
6 8 -9 0
-6 8 9 0
6 -8 9 0
10 -9 0
10 2 0
9 -2 -10 0
11 -1 0
11 9 0
1 -9 -11 0
2 -1 -12 0
-2 1 -12 0
2 1 12 0
-2 -1 12 0
13 -11 0
13 12 0
11 -12 -13 0
-14 -10 0
-14 -13 0
10 13 14 0
-18 -16 0
-18 -17 0
16 17 18 0
-19 -18 0
-19 -6 0
18 6 19 0
-19 -20 -21 0
19 20 -21 0
-19 20 21 0
19 -20 21 0
15 21 -22 0
-15 -21 -22 0
15 -21 22 0
-15 21 22 0
23 21 0
23 -9 0
-21 9 -23 0
25 -15 0
25 24 0
15 -24 -25 0
26 23 0
26 25 0
-23 -25 -26 0
22 26 -27 0
-22 -26 -27 0
22 -26 27 0
-22 26 27 0
-29 28 0
-29 20 0
-28 -20 29 0
-27 -29 -30 0
27 29 -30 0
-27 29 30 0
27 -29 30 0
14 30 -31 0
-14 -30 -31 0
14 -30 31 0
-14 30 31 0
5 -31 -32 0
-5 31 -32 0
5 31 32 0
-5 -31 32 0
-9 -31 6 -23 0
-1 31 20 -18 28 5 -17 0
-31 4 21 32 27 -26 -23 0
26 -24 -32 1 0
24 3 -25 0
-6 9 16 -25 -28 24 -3 0
-12 -11 -2 0
11 -32 9 0
32 0
